%datafile

NAceitesVegetales = 13;
NAceitesNoVegetales = 17;

Meses = 12;

K = 21;

T = 380;

Precios = [| 60, 120, 130, 110, 200, 110, 110, 140, 130, 170, 190, 120, 110, 120, 80, 140, 100, 190, 150, 100, 67, 115, 180, 125, 70, 130, 180, 90, 120, 60 
           | 150, 200, 80, 130, 140, 190, 110, 125, 135, 200, 60, 130, 120, 200, 80, 145, 110, 135, 200, 70, 140, 130, 130, 90, 110, 200, 145, 60, 130, 120
           | 120, 125, 60, 140, 200, 120, 80, 200, 135, 80, 70, 110, 200, 115, 100, 155, 110, 200, 90, 140, 120, 200, 130, 80, 125, 200, 140, 70, 200, 115
           | 110, 200, 70, 140, 115, 200, 120, 60, 200, 135, 120, 80, 200, 140, 140, 120, 90, 200, 135, 150, 115, 200, 80, 110, 120, 200, 70, 115, 110, 60
           | 140, 60, 110, 125, 70, 200, 90, 120, 200, 130, 120, 200, 130, 140, 90, 125, 200, 80, 130, 150, 200, 70, 140, 150, 60, 120, 200, 90, 110, 110
           | 110, 120, 130, 60, 200, 110, 110, 140, 200, 70, 110, 110, 200, 145, 80, 200, 120, 125, 200, 90, 125, 200, 110, 115, 60, 200, 125, 70, 200, 110
           | 120, 125, 60, 140, 200, 60, 115, 115, 200, 150, 110, 200, 60, 110, 115, 200, 110, 60, 130, 130, 120, 200, 130, 80, 125, 200, 80, 140, 125, 115
           | 80, 110, 135, 150, 200, 70, 130, 130, 110, 70, 140, 200, 115, 70, 120, 110, 120, 200, 70, 115, 110, 200, 140, 90, 130, 140, 200, 70, 125, 120
           | 140, 200, 120, 90, 130, 200, 115, 135, 90, 125, 200, 140, 140, 90, 115, 200, 125, 90, 140, 200, 120, 115, 70, 200, 150, 145, 90, 200, 115, 135
           | 125, 115, 80, 200, 150, 125, 125, 200, 80, 120, 120, 200, 140, 110, 80, 200, 120, 130, 110, 80, 110, 200, 140, 80, 130, 110, 200, 80, 145, 115
           | 70, 110, 140, 200, 70, 120, 135, 70, 200, 125, 70, 140, 70, 200, 115, 120, 125, 70, 200, 140, 120, 70, 115, 200, 150, 70, 110, 200, 115, 135
           | 145, 110, 200, 60, 135, 200, 110, 60, 200, 140, 150, 60, 120, 130, 200, 60, 110, 125, 135, 110, 60, 200, 140, 130, 130, 60, 200, 110, 125, 120 |];

PreciosMensual = [100, 140, 60, 120, 70, 160, 100, 80, 140, 155, 130, 120];

MAXV = 2000;
MAXN = 2500;

MCAP = 4000;
MCAPR = 500;

CA = 10;
CAR = 5;

MinD = 186.0;
MaxD = 187.5;

Durezas = [200.8, 195.1, 155.0, 160.2, 180.4, 165.7, 200.9, 160.6, 205.1, 10.4, 178.8, 195.9, 203.0, 155.5, 165.0, 185.0, 204.3, 201.2, 165.0, 180.9, 205.1, 155.4, 158.8, 196.9, 202.0, 205.1, 179.0, 157.2, 198.4, 200.7]; 

RestanteFinal = [110, 70, 130, 140, 120, 100, 200, 90, 120, 150, 95, 80, 70, 130, 100, 95, 140, 110, 170, 85, 130, 140, 120, 100, 200, 80, 70, 130, 100, 95];

AceitesAUsar = [| false, false, false, false, false, false, false, false, false, false, false, false, false, false, false, false, false, false, false, false, false, false, false, false, false, false, false, false, false, false
                | false, false, false, false, false, false, false, false, false, false, false, false, false, false, false, false, false, false, false, false, false, false, false, false, false, false, false, false, false, false
                | false, false, false, false, false, false, false, false, false, false, false, false, false, false, false, false, false, false, false, false, false, false, false, false, false, false, false, false, false, false
                | false, false, false, false, false, false, false, false, false, false, false, false, false, false, false, false, false, false, false, false, false, true, false, false, false, false, false, false, false, false
                | false, false, false, false, false, false, false, true, false, false, false, false, false, false, false, false, false, false, false, false , false, false, false, false, false, false, false, false, false, false
                | false, false, false, false, false, false, false, false, false, false, false, false, false, false, false, false, false, false, false, false, false, false, false, false, false, false, false, false, false, false
                | false, false, false, false, false, false, false, false, false, false, false, false, false, false, false, false, false, false, false, false, false, false, false, false, false, false, false, false, false, false
                | false, false, false, false, false, false, false, false, false, false, false, false, false, false, false, false, false, false, false, false, false, false, false, false, false, false, false, false, false, false       
                | false, false, false, false, false, false, false, false, false, false, false, false, false, false, false, false, false, false, false, false, false, true, false, false, false, false, false, false, false, true
                | false, false, false, false, false, false, false, false, false, false, false, false, false, false, false, false, false, false, false, false, false, false, false, false, false, false, false, false, false, false
                | false, false, false, false, false, false, false, false, false, false, false, false, false, false, true, false, false, false, false, false, false, false, false, false, false, false, false, false, false, false
                | false, false, false, false, false, false, false, false, false, false, false, false, false, false, false, false, false, false, false, false, false, false, false, false, false, false, false, false, false, false
                | false, false, false, false, false, false, false, false, false, false, false, false, false, false, false, false, false, false, false, false, false, false, false, false, false, false, false, false, false, false
                | false, false, false, false, false, false, false, false, true, false, false, false, false, false, false, false, false, false, false, false, false, false, false, false, false, false, false, false, false, false
                | false, false, false, false, false, false, false, false, false, false, false, false, false, false, false, false, false, false, false, false, false, false, false, false, false, false, false, false, false, false
                | false, false, false, false, false, false, false, false, false, false, false, false, false, false, false, false, false, false, false, false, false, false, false, false, false, false, false, false, false, false
                | false, false, false, false, true, false, false, false, false, false, false, false, false, false, false, false, false, false, false, false, false, false, false, false, false, false, false, false, false, false           
                | false, false, true, false, false, false, false, false, false, false, false, false, false, false, false, false, false, false, false, false, false, false, false, false, false, false, false, false, false, false
                | false, false, false, false, false, false, false, false, false, false, false, false, false, false, false, false, false, false, false, false, false, false, false, false, false, false, false, false, false, false
                | false, false, false, false, false, false, false, false, false, false, false, false, false, false, false, false, false, false, false, false, false, false, false, false, false, true, true, false, false, false
                | false, false, false, false, false, false, false, false, false, false, false, false, false, false, false, false, false, false, false, false, false, false, false, false, false, false, false, false, false, false
                | false, false, false, false, false, false, false, false, false, false, false, false, false, false, false, false, false, false, false, false, false, false, false, false, false, false, false, false, false, false
                | false, false, false, false, false, false, false, false, false, false, false, false, false, false, false, false, false, false, false, false, false, false, false, false, false, false, false, false, false, false
                | false, false, false, false, false, false, false, false, false, false, false, false, false, false, false, false, false, false, false, false, false, false, false, false, false, false, false, false, false, false
                | false, false, false, false, false, false, false, false, false, false, false, false, false, false, false, false, false, false, false, false, false, false, false, false, false, false, false, false, false, false
                | false, false, false, false, false, false, false, false, false, false, false, false, false, false, false, false, false, false, false, false, false, false, false, false, false, false, false, false, false, false
                | true, false, true, false, false, false, false, false, false, false, false, false, false, false, false, false, false, false, false, false, false, false, false, false, false, false, false, false, false, false
                | false, false, false, false, false, false, false, false, false, false, false, false, false, false, true, false, false, false, false, false, false, false, false, false, false, false, false, false, false, false
                | false, false, false, false, false, false, true, false, false, false, false, false, false, false, false, false, false, false, false, false, false, false, false, false, false, false, false, false, false, false
                | false, false, false, false, false, false, false, false, false, false, false, false, false, false, false, false, false, false, false, false, false, false, false, true, false, false, false, false, false, false |];
                
                
MinB = 1785000;